
Gurobi 8.0.1 (linux64, Python) logging started Sat Nov 24 13:31:40 2018

Academic license - for non-commercial use only
Optimize a model with 800 rows, 2400 columns and 868800 nonzeros
Variable types: 0 continuous, 2400 integer (2400 binary)
Coefficient statistics:
  Matrix range     [1e+00, 9e+00]
  Objective range  [1e+02, 6e+02]
  Bounds range     [1e+00, 1e+00]
  RHS range        [1e+00, 6e+01]
Found heuristic solution: objective 1300.0000000
Presolve time: 2.02s
Presolved: 800 rows, 2400 columns, 868800 nonzeros
Variable types: 0 continuous, 2400 integer (2400 binary)

Root simplex log...

Iteration    Objective       Primal Inf.    Dual Inf.      Time
    1357    5.5266685e+03   3.335191e+01   0.000000e+00      5s
    1697    5.5251609e+03   0.000000e+00   0.000000e+00      7s

Root relaxation: objective 5.525161e+03, 1697 iterations, 4.44 seconds

    Nodes    |    Current Node    |     Objective Bounds      |     Work
 Expl Unexpl |  Obj  Depth IntInf | Incumbent    BestBd   Gap | It/Node Time

     0     0 5525.16094    0  297 1300.00000 5525.16094   325%     -    7s
H    0     0                    4500.0037410 5525.16094  22.8%     -    7s
H    0     0                    4800.0000000 5525.16094  15.1%     -   42s

Gurobi 8.0.1 (linux64, Python) logging started Sat Nov 24 14:25:37 2018

Academic license - for non-commercial use only
Optimize a model with 800 rows, 2400 columns and 868800 nonzeros
Variable types: 0 continuous, 2400 integer (2400 binary)
Coefficient statistics:
  Matrix range     [1e+00, 9e+00]
  Objective range  [1e+02, 6e+02]
  Bounds range     [1e+00, 1e+00]
  RHS range        [1e+00, 6e+01]
Found heuristic solution: objective 0.0000000

Explored 0 nodes (0 simplex iterations) in 0.22 seconds
Thread count was 1 (of 2 available processors)

Solution count 1: 0 

Optimal solution found (tolerance 1.00e-04)
Best objective 0.000000000000e+00, best bound 0.000000000000e+00, gap 0.0000%
Optimize a model with 800 rows, 2400 columns and 868800 nonzeros
Variable types: 0 continuous, 2400 integer (2400 binary)
Coefficient statistics:
  Matrix range     [1e+00, 9e+00]
  Objective range  [1e+02, 6e+02]
  Bounds range     [1e+00, 1e+00]
  RHS range        [1e+00, 6e+01]

Loaded MIP start with objective 1e+100

Presolve removed 800 rows and 2400 columns
Presolve time: 0.31s
Presolve: All rows and columns removed

Explored 0 nodes (0 simplex iterations) in 0.41 seconds
Thread count was 1 (of 2 available processors)

Solution count 1: 0 

Optimal solution found (tolerance 1.00e-04)
Best objective 0.000000000000e+00, best bound 0.000000000000e+00, gap 0.0000%
Optimize a model with 800 rows, 2400 columns and 868800 nonzeros
Variable types: 0 continuous, 2400 integer (2400 binary)
Coefficient statistics:
  Matrix range     [1e+00, 9e+00]
  Objective range  [1e+02, 6e+02]
  Bounds range     [1e+00, 1e+00]
  RHS range        [1e+00, 6e+01]
Found heuristic solution: objective 0.0000000

Explored 0 nodes (0 simplex iterations) in 0.20 seconds
Thread count was 1 (of 2 available processors)

Solution count 1: 0 

Optimal solution found (tolerance 1.00e-04)
Best objective 0.000000000000e+00, best bound 0.000000000000e+00, gap 0.0000%
Optimize a model with 800 rows, 2400 columns and 868800 nonzeros
Variable types: 0 continuous, 2400 integer (2400 binary)
Coefficient statistics:
  Matrix range     [1e+00, 9e+00]
  Objective range  [1e+02, 6e+02]
  Bounds range     [1e+00, 1e+00]
  RHS range        [1e+00, 6e+01]
Found heuristic solution: objective 0.0000000

Explored 0 nodes (0 simplex iterations) in 0.18 seconds
Thread count was 1 (of 2 available processors)

Solution count 1: 0 

Optimal solution found (tolerance 1.00e-04)
Best objective 0.000000000000e+00, best bound 0.000000000000e+00, gap 0.0000%
Optimize a model with 800 rows, 2400 columns and 868800 nonzeros
Variable types: 0 continuous, 2400 integer (2400 binary)
Coefficient statistics:
  Matrix range     [1e+00, 9e+00]
  Objective range  [1e+02, 6e+02]
  Bounds range     [1e+00, 1e+00]
  RHS range        [1e+00, 6e+01]
Found heuristic solution: objective 0.0000000

Explored 0 nodes (0 simplex iterations) in 0.21 seconds
Thread count was 1 (of 2 available processors)

Solution count 1: 0 

Optimal solution found (tolerance 1.00e-04)
Best objective 0.000000000000e+00, best bound 0.000000000000e+00, gap 0.0000%
Optimize a model with 800 rows, 2400 columns and 962400 nonzeros
Variable types: 0 continuous, 2400 integer (2400 binary)
Coefficient statistics:
  Matrix range     [1e+00, 1e+09]
  Objective range  [1e+02, 6e+02]
  Bounds range     [1e+00, 1e+00]
  RHS range        [1e+00, 6e+01]
Warning: Model contains large matrix coefficients
         Consider reformulating model or setting NumericFocus parameter
         to avoid numerical issues.
Found heuristic solution: objective 0.0000000

Explored 0 nodes (0 simplex iterations) in 0.22 seconds
Thread count was 1 (of 2 available processors)

Solution count 1: 0 

Optimal solution found (tolerance 1.00e-04)
Best objective 0.000000000000e+00, best bound 0.000000000000e+00, gap 0.0000%
Optimize a model with 800 rows, 2400 columns and 962400 nonzeros
Variable types: 0 continuous, 2400 integer (2400 binary)
Coefficient statistics:
  Matrix range     [1e+00, 1e+09]
  Objective range  [1e+02, 6e+02]
  Bounds range     [1e+00, 1e+00]
  RHS range        [1e+00, 6e+01]
Warning: Model contains large matrix coefficients
         Consider reformulating model or setting NumericFocus parameter
         to avoid numerical issues.
Found heuristic solution: objective 4000.0000000
Presolve time: 2.33s
Presolved: 800 rows, 2400 columns, 962400 nonzeros
Variable types: 0 continuous, 2400 integer (2400 binary)

Root simplex log...

Iteration    Objective       Primal Inf.    Dual Inf.      Time
     777    6.3216949e+02   2.462193e+02   0.000000e+00      5s
     850    6.3464392e+02   0.000000e+00   0.000000e+00      6s

Root relaxation: objective 6.346439e+02, 850 iterations, 3.33 seconds

    Nodes    |    Current Node    |     Objective Bounds      |     Work
 Expl Unexpl |  Obj  Depth IntInf | Incumbent    BestBd   Gap | It/Node Time

     0     0  634.64392    0  400 4000.00000  634.64392  84.1%     -    6s
H    0     0                    1600.0000000  634.64392  60.3%     -    6s
H    0     0                    1500.0000000  634.64392  57.7%     -   47s
     0     0  634.64392    0  400 1500.00000  634.64392  57.7%     -  153s
     0     2  634.64392    0  400 1500.00000  634.64392  57.7%     -  155s
    26    27  636.06532   11  379 1500.00000  636.06532  57.6%   2.8  242s
    39    39  643.62991   17  354 1500.00000  643.62991  57.1%   9.7  245s
    64    64  705.54844   22  360 1500.00000  651.51896  56.6%  15.4  250s
   116   117  743.86659   55  286 1500.00000  651.51896  56.6%  18.9  255s
   132   133  768.60888   62  360 1500.00000  651.51896  56.6%  23.8  260s
   155   156  774.45148   74  274 1500.00000  651.51896  56.6%  28.3  265s
   174   175  800.87747   83  353 1500.00000  651.51896  56.6%  32.1  270s
   197   198  805.55146   96  284 1500.00000  651.51896  56.6%  34.1  275s
   224   225  836.78232  111  227 1500.00000  651.51896  56.6%  38.5  280s
   246   247  891.04709  123   84 1500.00000  651.51896  56.6%  42.9  285s
   611   604  674.82261    5  358 1500.00000  651.83247  56.5%  24.6  337s
   694   677  717.54674   28  317 1500.00000  651.83247  56.5%  22.3  340s
   736   711  661.58278   13  400 1500.00000  651.83247  56.5%  21.4  418s
   738   712 1204.58066  319  400 1500.00000  651.83247  56.5%  21.3  477s
   740   714  698.28190   16  400 1500.00000  651.83247  56.5%  21.3  480s
   741   717  651.83247   11  398 1500.00000  651.83247  56.5%  22.4  505s
   743   719  651.83247   12  397 1500.00000  651.83247  56.5%  22.4  510s
   745   720  676.43014   12  361 1500.00000  651.83247  56.5%  22.4  515s
   749   723  674.79875   13  360 1500.00000  651.83247  56.5%  22.3  520s
   751   725  651.83247   14  393 1500.00000  651.83247  56.5%  22.3  525s
   754   724  674.79878   14  359 1500.00000  651.83247  56.5%  22.3  530s
   758   727  675.52269   15  358 1500.00000  651.83247  56.5%  22.3  535s
   762   728  675.56565   16  357 1500.00000  651.83247  56.5%  22.3  540s
   767   735  676.65500   17  356 1500.00000  651.83247  56.5%  22.2  658s
   769   732  651.83247   18  385 1500.00000  651.83247  56.5%  22.2  662s
   773   737  676.66688   18  355 1500.00000  651.83247  56.5%  22.2  668s
   779   741  676.67414   19  354 1500.00000  651.83247  56.5%  22.1  673s
   785   746  676.74195   20  353 1500.00000  651.83247  56.5%  22.1  678s
   792   749  676.23099   21  352 1500.00000  651.83247  56.5%  22.0  683s
   800   754  676.87868   22  351 1500.00000  651.83247  56.5%  22.0  688s
   805   759  677.05263   23  350 1500.00000  651.83247  56.5%  22.2  693s
   814   763  677.14110   24  349 1500.00000  651.83247  56.5%  22.2  727s
   821   770  677.45604   25  348 1500.00000  651.83247  56.5%  22.2  732s
   832   776  677.75248   26  347 1500.00000  651.83247  56.5%  22.4  737s
   844   784  678.34184   27  346 1500.00000  651.83247  56.5%  22.9  742s
   852   788  679.33071   28  345 1500.00000  652.27937  56.5%  23.6  747s
   857   794  683.25269   29  321 1500.00000  660.74065  56.0%  24.0  755s
   864   798  684.68054   30  326 1500.00000  674.84061  55.0%  24.8  760s
   881   808  705.10644   36  356 1500.00000  674.84061  55.0%  25.5  765s
   916   833  805.57627   48  322 1500.00000  674.84061  55.0%  27.2  775s
   927   838  712.83676   51  342 1500.00000  674.84061  55.0%  28.4  782s
   934   844  816.74864   52  341 1500.00000  674.84061  55.0%  29.6  789s
   946   852  901.18003   55  323 1500.00000  674.84061  55.0%  30.8  795s
   956   859  737.34403   59  353 1500.00000  674.84061  55.0%  31.9  801s
   970   869  740.70941   63  297 1500.00000  674.84061  55.0%  33.1  809s
   981   875  741.34159   66  292 1500.00000  674.84061  55.0%  34.7  816s
   991   882  741.69238   68  298 1500.00000  674.84061  55.0%  36.4  822s
  1001   889  742.37645   71  341 1500.00000  674.84061  55.0%  37.8  829s
  1011   896  767.13403   74  358 1500.00000  674.84061  55.0%  39.2  836s
  1022   904  996.49041   77  317 1500.00000  674.84061  55.0%  41.3  852s
  1027   905  769.08465   78  341 1500.00000  674.84061  55.0%  42.5  859s
  1038   914  993.56318   81  319 1500.00000  674.84061  55.0%  44.4  868s
  1051   923  771.65477   84  280 1500.00000  674.84061  55.0%  46.3  876s
  1058   928  771.89926   86  298 1500.00000  674.84061  55.0%  48.4  886s
  1067   933  772.08922   88  294 1500.00000  674.84061  55.0%  50.6  896s
  1079   941  772.71652   91  331 1500.00000  674.84061  55.0%  52.9  908s
  1089   946  798.78292   93  351 1500.00000  674.84061  55.0%  54.8  920s
  1102   957  838.13732   96  315 1500.00000  674.84061  55.0%  57.1  932s
  1131   974  802.60114  108  286 1500.00000  674.84061  55.0%  58.8  945s
  1150   989  839.48816  114  302 1500.00000  674.84061  55.0%  61.0  959s
  1165   997  806.94754  118  250 1500.00000  674.84061  55.0%  64.4 1021s

Explored 1172 nodes (78310 simplex iterations) in 1021.68 seconds
Thread count was 2 (of 2 available processors)

Solution count 3: 1500 1600 4000 

Solve interrupted
Best objective 1.500000000000e+03, best bound 7.000000000000e+02, gap 53.3333%

Gurobi 8.0.1 (linux64, Python) logging started Sat Nov 24 15:28:08 2018

Academic license - for non-commercial use only
Optimize a model with 800 rows, 2400 columns and 962400 nonzeros
Variable types: 0 continuous, 2400 integer (2400 binary)
Coefficient statistics:
  Matrix range     [1e-04, 1e+09]
  Objective range  [1e+02, 6e+02]
  Bounds range     [1e+00, 1e+00]
  RHS range        [1e-03, 1e+00]
Warning: Model contains large matrix coefficient range
         Consider reformulating model or setting NumericFocus parameter
         to avoid numerical issues.
Found heuristic solution: objective 700.0000000
Presolve removed 0 rows and 378 columns
Presolve time: 2.77s
Presolved: 800 rows, 2022 columns, 810822 nonzeros
Variable types: 0 continuous, 2022 integer (2022 binary)

Root relaxation: objective 1.613552e+02, 78 iterations, 0.19 seconds

    Nodes    |    Current Node    |     Objective Bounds      |     Work
 Expl Unexpl |  Obj  Depth IntInf | Incumbent    BestBd   Gap | It/Node Time

     0     0  161.35521    0   14  700.00000  161.35521  76.9%     -    3s
H    0     0                     200.0000000  161.35521  19.3%     -    3s

Explored 1 nodes (80 simplex iterations) in 3.73 seconds
Thread count was 2 (of 2 available processors)

Solution count 2: 200 700 

Optimal solution found (tolerance 1.00e-04)
Best objective 2.000000000000e+02, best bound 2.000000000000e+02, gap 0.0000%
Optimize a model with 800 rows, 2400 columns and 962400 nonzeros
Variable types: 0 continuous, 2400 integer (2400 binary)
Coefficient statistics:
  Matrix range     [1e-04, 1e+09]
  Objective range  [1e+02, 6e+02]
  Bounds range     [1e+00, 1e+00]
  RHS range        [1e-03, 1e+00]
Warning: Model contains large matrix coefficient range
         Consider reformulating model or setting NumericFocus parameter
         to avoid numerical issues.
Presolved: 800 rows, 2022 columns, 810822 nonzeros

Continuing optimization...


Explored 1 nodes (80 simplex iterations) in 0.09 seconds
Thread count was 2 (of 2 available processors)

Solution count 2: 200 700 

Optimal solution found (tolerance 1.00e-04)
Best objective 2.000000000000e+02, best bound 2.000000000000e+02, gap 0.0000%
Optimize a model with 800 rows, 2400 columns and 962400 nonzeros
Variable types: 0 continuous, 2400 integer (2400 binary)
Coefficient statistics:
  Matrix range     [1e-04, 1e+00]
  Objective range  [1e+02, 6e+02]
  Bounds range     [1e+00, 1e+00]
  RHS range        [1e-03, 1e+00]
Found heuristic solution: objective 500.0000000
Presolve removed 0 rows and 554 columns
Presolve time: 3.82s
Presolved: 800 rows, 1846 columns, 740246 nonzeros
Variable types: 0 continuous, 1846 integer (1846 binary)

Root relaxation: objective 1.613552e+02, 78 iterations, 0.17 seconds

    Nodes    |    Current Node    |     Objective Bounds      |     Work
 Expl Unexpl |  Obj  Depth IntInf | Incumbent    BestBd   Gap | It/Node Time

     0     0  161.35521    0   14  500.00000  161.35521  67.7%     -    4s
H    0     0                     200.0000000  161.35521  19.3%     -    4s

Explored 1 nodes (81 simplex iterations) in 4.62 seconds
Thread count was 2 (of 2 available processors)

Solution count 2: 200 500 

Optimal solution found (tolerance 1.00e-04)
Best objective 2.000000000000e+02, best bound 2.000000000000e+02, gap 0.0000%
Optimize a model with 800 rows, 2400 columns and 962400 nonzeros
Variable types: 0 continuous, 2400 integer (2400 binary)
Coefficient statistics:
  Matrix range     [1e-04, 3e+01]
  Objective range  [1e+02, 6e+02]
  Bounds range     [1e+00, 1e+00]
  RHS range        [1e-03, 1e+00]
Found heuristic solution: objective 500.0000000
Presolve removed 0 rows and 554 columns
Presolve time: 3.72s
Presolved: 800 rows, 1846 columns, 740246 nonzeros
Variable types: 0 continuous, 1846 integer (1846 binary)

Root relaxation: objective 1.676930e+02, 10 iterations, 0.14 seconds

    Nodes    |    Current Node    |     Objective Bounds      |     Work
 Expl Unexpl |  Obj  Depth IntInf | Incumbent    BestBd   Gap | It/Node Time

     0     0  167.69296    0    4  500.00000  167.69296  66.5%     -    4s
H    0     0                     200.0000000  167.69296  16.2%     -    4s

Explored 1 nodes (10 simplex iterations) in 4.42 seconds
Thread count was 2 (of 2 available processors)

Solution count 2: 200 500 

Optimal solution found (tolerance 1.00e-04)
Best objective 2.000000000000e+02, best bound 2.000000000000e+02, gap 0.0000%
Optimize a model with 800 rows, 2400 columns and 962400 nonzeros
Variable types: 0 continuous, 2400 integer (2400 binary)
Coefficient statistics:
  Matrix range     [1e-04, 3e+01]
  Objective range  [1e+02, 6e+02]
  Bounds range     [1e+00, 1e+00]
  RHS range        [1e-01, 1e+00]
Found heuristic solution: objective 13400.000000
Presolve time: 2.50s
Presolved: 800 rows, 2400 columns, 962400 nonzeros
Variable types: 0 continuous, 2400 integer (2400 binary)

Root simplex log...

Iteration    Objective       Primal Inf.    Dual Inf.      Time
     686    3.0134289e+03   1.530586e+01   0.000000e+00      5s
     994    3.0226262e+03   0.000000e+00   0.000000e+00      7s

Root relaxation: objective 3.022626e+03, 994 iterations, 3.84 seconds

    Nodes    |    Current Node    |     Objective Bounds      |     Work
 Expl Unexpl |  Obj  Depth IntInf | Incumbent    BestBd   Gap | It/Node Time

     0     0 3022.62618    0  297 13400.0000 3022.62618  77.4%     -    7s
H    0     0                    5100.0000000 3022.62618  40.7%     -    7s
H    0     0                    4800.0000000 3022.62618  37.0%     -   44s
     0     0 3023.81155    0  299 4800.00000 3023.81155  37.0%     -   63s
     0     0 3024.66262    0  295 4800.00000 3024.66262  37.0%     -   64s
     0     0 3024.76504    0  300 4800.00000 3024.76504  37.0%     -   64s
     0     0 3024.83448    0  299 4800.00000 3024.83448  37.0%     -   64s
     0     0 3024.87338    0  299 4800.00000 3024.87338  37.0%     -   65s
     0     0 3024.94365    0  297 4800.00000 3024.94365  37.0%     -   65s
     0     0 3025.57364    0  295 4800.00000 3025.57364  37.0%     -   90s
     0     0 3025.70064    0  298 4800.00000 3025.70064  37.0%     -   90s
     0     0 3027.03056    0  296 4800.00000 3027.03056  36.9%     -  108s
     0     0 3027.20456    0  295 4800.00000 3027.20456  36.9%     -  109s
     0     0 3027.54238    0  299 4800.00000 3027.54238  36.9%     -  109s
     0     0 3027.73533    0  296 4800.00000 3027.73533  36.9%     -  110s
     0     0 3028.28362    0  295 4800.00000 3028.28362  36.9%     -  110s
     0     0 3029.50759    0  303 4800.00000 3029.50759  36.9%     -  129s
     0     0 3029.52110    0  303 4800.00000 3029.52110  36.9%     -  130s
     0     0 3030.28090    0  300 4800.00000 3030.28090  36.9%     -  146s
     0     0 3030.30909    0  301 4800.00000 3030.30909  36.9%     -  147s
     0     0 3030.35406    0  303 4800.00000 3030.35406  36.9%     -  147s
     0     0 3030.55380    0  305 4800.00000 3030.55380  36.9%     -  165s
     0     0 3030.95670    0  306 4800.00000 3030.95670  36.9%     -  182s
     0     0 3031.77736    0  300 4800.00000 3031.77736  36.8%     -  183s
     0     0 3031.88206    0  301 4800.00000 3031.88206  36.8%     -  184s
     0     0 3031.88725    0  301 4800.00000 3031.88725  36.8%     -  184s
     0     0 3032.14778    0  300 4800.00000 3032.14778  36.8%     -  201s
     0     0 3032.17035    0  299 4800.00000 3032.17035  36.8%     -  202s
     0     0 3032.28921    0  297 4800.00000 3032.28921  36.8%     -  202s
     0     0 3032.61725    0  296 4800.00000 3032.61725  36.8%     -  217s
     0     0 3032.84521    0  300 4800.00000 3032.84521  36.8%     -  232s
H    0     0                    4500.0000000 3032.84521  32.6%     -  500s
     0     0 3033.09843    0  302 4500.00000 3033.09843  32.6%     -  501s
     0     0 3033.20395    0  303 4500.00000 3033.20395  32.6%     -  501s
     0     0 3033.43663    0  299 4500.00000 3033.43663  32.6%     -  520s
     0     0 3033.48001    0  303 4500.00000 3033.48001  32.6%     -  553s
     0     0 3033.52156    0  303 4500.00000 3033.52156  32.6%     -  570s
     0     0 3033.53095    0  302 4500.00000 3033.53095  32.6%     -  571s
     0     0 3033.57386    0  303 4500.00000 3033.57386  32.6%     -  589s
     0     0 3033.67041    0  300 4500.00000 3033.67041  32.6%     -  609s
     0     0 3033.99791    0  302 4500.00000 3033.99791  32.6%     -  627s
     0     0 3033.99791    0  302 4500.00000 3033.99791  32.6%     -  645s
     0     2 3033.99791    0  302 4500.00000 3033.99791  32.6%     -  677s
     5     8 3047.32751    2  296 4500.00000 3047.32751  32.3%   106  680s
    13    15 3078.19736    4  294 4500.00000 3050.87631  32.2%   119  685s
    26    28 3090.73560    8  294 4500.00000 3050.87631  32.2%   115  690s
    44    44 3105.38830   17  290 4500.00000 3050.87631  32.2%   103  695s
    60    61 3136.23011   25  280 4500.00000 3050.87631  32.2%   101  700s
    78    79 3161.19861   34  273 4500.00000 3050.87631  32.2%  93.3  705s
   100   100 3192.18039   43  272 4500.00000 3050.87631  32.2%  88.0  710s
   131   133 3211.69382   56  271 4500.00000 3050.87631  32.2%  80.6  716s
   151   154 3228.14094   68  265 4500.00000 3050.87631  32.2%  77.7  720s
   182   186 3278.64206   81  260 4500.00000 3050.87631  32.2%  74.4  725s
   213   215 3309.09921   96  253 4500.00000 3050.87631  32.2%  72.0  731s
   241   244 3334.18603  104  254 4500.00000 3050.87631  32.2%  68.9  736s
   270   272 3366.21591  114  246 4500.00000 3050.87631  32.2%  68.0  741s
   304   307 3390.89562  129  231 4500.00000 3050.87631  32.2%  66.3  746s
   335   336 3432.11497  141  222 4500.00000 3050.87631  32.2%  67.0  751s
   378   380 3440.72584  159  226 4500.00000 3050.87631  32.2%  65.4  757s
   401   400 3462.49194  175  216 4500.00000 3050.87631  32.2%  64.8  761s
   427   429 3506.16163  186  214 4500.00000 3050.87631  32.2%  64.1  765s
   477   478 3525.60044  213  205 4500.00000 3050.87631  32.2%  63.4  772s
   514   515 3540.89840  225  205 4500.00000 3050.87631  32.2%  61.9  775s
   575   574 3567.00136  250  192 4500.00000 3050.87631  32.2%  61.5  783s
   606   608 3584.41606  263  193 4500.00000 3050.87631  32.2%  61.6  788s
   652   653 3625.59115  283  188 4500.00000 3050.87631  32.2%  60.4  792s
   690   690 3652.27199  294  177 4500.00000 3050.87631  32.2%  60.2  797s
   758   759 3675.20671  322  169 4500.00000 3050.87631  32.2%  57.5  801s
   823   824 3702.25854  353  160 4500.00000 3050.87631  32.2%  55.8  805s
   972   972 3758.55783  417  152 4500.00000 3050.87631  32.2%  52.6  814s
  1055  1057 3815.90391  455  155 4500.00000 3050.87631  32.2%  51.1  819s
  1154  1155 3877.15267  490  148 4500.00000 3050.87631  32.2%  49.1  824s
  1276  1276 3942.34360  550  133 4500.00000 3050.87631  32.2%  46.7  829s
  1436  1437 3986.26414  627  113 4500.00000 3050.87631  32.2%  43.5  834s
  1556  1558 4055.72902  680   95 4500.00000 3050.87631  32.2%  42.4  840s
  1723  1723 4044.49589  757   96 4500.00000 3050.87631  32.2%  40.1  846s
  1926  1928 4207.85259  855   79 4500.00000 3050.87631  32.2%  37.5  852s
  2149  2145 4265.09817  956   71 4500.00000 3055.53275  32.1%  35.1  858s
  2438  2418 3078.41246    4  292 4500.00000 3055.53275  32.1%  31.7  863s
  2550  2502 4321.25355 1056  302 4500.00000 3055.53275  32.1%  30.9 1040s
  2552  2503 4130.35304  816  297 4500.00000 3055.53275  32.1%  30.9 1194s
  2553  2504 3173.91051   37  298 4500.00000 3055.53275  32.1%  30.9 1215s
  2559  2508 4317.43876 1085  300 4500.00000 3055.53275  32.1%  30.8 1220s
  2560  2509 3984.66296  604  302 4500.00000 3055.53275  32.1%  30.8 1242s
  2561  2509 3419.39969  132  300 4500.00000 3055.53275  32.1%  30.8 1315s
  2562  2510 3740.38257  396  300 4500.00000 3055.53275  32.1%  30.7 1339s
  2563  2511 4190.36238  875  300 4500.00000 3055.53275  32.1%  30.7 1383s
  2564  2514 3055.53275   11  295 4500.00000 3055.53275  32.1%  31.5 1826s
  2566  2516 3071.34855   12  295 4500.00000 3055.53275  32.1%  31.6 1845s
  2568  2517 3069.45973   12  295 4500.00000 3058.42884  32.0%  31.6 1852s
  2570  2518 3071.05198   13  293 4500.00000 3058.42884  32.0%  31.7 1857s
  2574  2522 3075.70076   14  294 4500.00000 3059.12514  32.0%  31.8 1864s
  2577  2522 3093.26621   14  294 4500.00000 3062.71842  31.9%  31.9 1870s
  2580  2522 3090.07699   15  290 4500.00000 3062.83802  31.9%  32.0 1877s
  2583  2524 3090.68915   15  292 4500.00000 3065.35651  31.9%  32.1 1880s
  2593  2533 3116.99023   17  286 4500.00000 3074.63730  31.7%  32.3 1886s
  2605  2540 3122.50672   21  284 4500.00000 3074.63730  31.7%  32.6 1890s
  2619  2549 3148.19204   25  279 4500.00000 3074.63730  31.7%  32.8 1895s
  2631  2557 3140.36064   29  279 4500.00000 3074.63730  31.7%  33.0 1900s
  2644  2565 3151.28477   32  281 4500.00000 3074.63730  31.7%  33.3 1905s
  2657  2575 3158.27736   35  278 4500.00000 3074.63730  31.7%  33.6 1910s
  2662  2578 3162.77817   36  278 4500.00000 3074.63730  31.7%  33.8 1915s
  2679  2588 3169.09790   40  280 4500.00000 3074.63730  31.7%  34.0 1921s
  2686  2595 3333.67362   41  270 4500.00000 3074.63730  31.7%  34.3 1925s
  2705  2605 3196.02769   47  273 4500.00000 3074.63730  31.7%  34.6 1932s
  2714  2614 3225.41741   49  267 4500.00000 3074.63730  31.7%  34.9 1935s
  2739  2629 3209.60015   54  268 4500.00000 3074.63730  31.7%  35.2 1942s
  2753  2638 3216.34230   56  268 4500.00000 3074.63730  31.7%  35.4 1945s
  2763  2645 3230.25193   59  259 4500.00000 3074.63730  31.7%  35.6 1950s
  2792  2665 3260.15630   65  250 4500.00000 3074.63730  31.7%  36.1 1959s
  2811  2677 3270.40655   70  245 4500.00000 3074.63730  31.7%  36.3 1964s
  2829  2691 3288.84303   74  240 4500.00000 3074.63730  31.7%  36.5 1967s
  2847  2704 3316.66908   79  233 4500.00000 3074.63730  31.7%  36.7 1972s
  2872  2718 3328.41394   87  229 4500.00000 3074.63730  31.7%  36.9 1977s
  2896  2733 3338.58548   94  229 4500.00000 3074.63730  31.7%  37.0 1982s
  2917  2749 3388.95050   99  222 4500.00000 3074.63730  31.7%  37.3 1988s
  2940  2763 3362.68190  107  223 4500.00000 3074.63730  31.7%  37.5 1994s
  2970  2782 3368.46970  113  223 4500.00000 3074.63730  31.7%  37.7 1999s
  2995  2801 3373.98747  120  227 4500.00000 3074.63730  31.7%  37.9 2004s
  3014  2810 3379.50548  125  222 4500.00000 3074.63730  31.7%  38.3 2011s
  3034  2827 3418.63472  130  215 4500.00000 3074.63730  31.7%  38.6 2017s
  3055  2841 3446.00854  136  213 4500.00000 3074.63730  31.7%  39.1 2023s
  3080  2855 3408.60761  142  220 4500.00000 3074.63730  31.7%  39.4 2030s
  3109  2876 3458.05515  148  211 4500.00000 3074.63730  31.7%  39.7 2038s
  3111  2878 3413.83230  149  218 4500.00000 3074.63730  31.7%  39.7 2045s
  3140  2896 3425.20594  156  214 4500.00000 3074.63730  31.7%  40.1 2052s
  3170  2919 3437.70118  162  216 4500.00000 3074.63730  31.7%  40.5 2059s
  3205  2941 3454.27841  171  216 4500.00000 3074.63730  31.7%  40.8 2068s
  3242  2963 3462.87358  179  199 4500.00000 3074.63730  31.7%  41.2 2076s
  3279  2989 3467.42333  188  195 4500.00000 3074.63730  31.7%  41.6 2084s
  3323  3019 3481.05214  199  195 4500.00000 3074.63730  31.7%  41.9 2093s
  3360  3043 3486.45457  207  193 4500.00000 3074.63730  31.7%  42.4 2102s
  3402  3069 3492.53667  218  194 4500.00000 3074.63730  31.7%  42.9 2133s
  3404  3073 3533.24145  218  188 4500.00000 3074.63730  31.7%  42.9 2142s
  3451  3104 3509.82859  229  188 4500.00000 3074.63730  31.7%  43.3 2153s
  3493  3132 3523.61459  240  178 4500.00000 3074.63730  31.7%  43.8 2164s
  3535  3161 3570.16873  251  168 4500.00000 3074.63730  31.7%  44.4 2175s
  3596  3199 3561.49636  268  166 4500.00000 3074.63730  31.7%  44.8 2187s
  3665  3246 3753.85495  286  157 4500.00000 3074.63730  31.7%  45.0 2199s
  3733  3291 3631.87894  306  159 4500.00000 3074.63730  31.7%  45.6 2212s
  3796  3339 3675.94901  323  143 4500.00000 3074.63730  31.7%  46.1 2226s
  3877  3388 3659.30291  344  149 4500.00000 3074.63730  31.7%  46.5 2240s
  3957  3441 3675.43436  364  143 4500.00000 3074.63730  31.7%  47.0 2255s
  4047  3502 3698.38309  388  148 4500.00000 3074.63730  31.7%  47.5 2269s
  4124  3551 3719.50739  408  142 4500.00000 3074.63730  31.7%  48.1 2286s
  4225  3621 3742.56142  435  135 4500.00000 3074.63730  31.7%  48.6 2304s
  4374  3719 3799.02969  473  125 4500.00000 3074.63730  31.7%  48.6 2321s
  4540  3830 3829.40418  513  123 4500.00000 3074.63730  31.7%  48.4 2338s
  4688  3928 3859.46584  551  117 4500.00000 3074.63730  31.7%  48.6 2357s
  4850  4036 3880.86701  589  110 4500.00000 3074.63730  31.7%  48.7 2378s
  5040  4167 3947.74181  642   99 4500.00000 3074.63730  31.7%  48.6 2400s
  5254  4305 4000.94117  694   88 4500.00000 3074.63730  31.7%  48.4 2422s
  5467  4447 4034.61782  748   79 4500.00000 3074.63730  31.7%  48.6 2446s
  5775  4653 4110.63097  820   72 4500.00000 3074.63730  31.7%  48.1 2471s
  6154  4899 4145.26382  914   60 4500.00000 3074.63730  31.7%  47.2 2494s
  6536  5136 4175.06542 1014   52 4500.00000 3074.63730  31.7%  46.2 2517s
  7025  5427 4208.53204 1139   37 4500.00000 3074.63730  31.7%  44.6 2546s
  7482  5600 4252.40855 1244   29 4500.00000 3078.06651  31.6%  43.0 2610s
  8165  5629 3112.84652   17  284 4500.00000 3078.06651  31.6%  40.4 2623s
  8254  5633 3136.64577   26  278 4500.00000 3078.06651  31.6%  40.5 2636s
  8307  5668 3176.53305   37  260 4500.00000 3078.06651  31.6%  40.7 2650s
  8369  5711 3242.49002   53  242 4500.00000 3078.06651  31.6%  41.0 2663s
  8438  5758 3258.60856   68  241 4500.00000 3078.06651  31.6%  41.2 2678s
  8533  5819 3329.00085   92  217 4500.00000 3078.06651  31.6%  41.4 2706s
  8549  5832 3370.92127   96  217 4500.00000 3078.06651  31.6%  41.5 2721s
  8642  5895 3364.24422  113  219 4500.00000 3078.06651  31.6%  41.7 2735s
  8763  5971 3396.10267  133  207 4500.00000 3078.06651  31.6%  41.9 2750s
  8922  6081 3491.15397  155  181 4500.00000 3078.06651  31.6%  41.9 2767s
  9077  6183 3487.91753  182  186 4500.00000 3078.06651  31.6%  42.0 2784s
  9305  6334 3518.16838  207  175 4500.00000 3078.06651  31.6%  41.8 2801s
  9574  6516 3580.00152  238  161 4500.00000 3078.06651  31.6%  41.6 2819s
  9957  6762 3647.18787  271  150 4500.00000 3078.06651  31.6%  41.0 2837s
 10545  7208 3845.64923  306  151 4500.00000 3078.06651  31.6%  39.4 2851s
 10634  7294 3732.99570  340  146 4500.00000 3078.06651  31.6%  39.6 2865s
 10744  7408 3853.25955  380  127 4500.00000 3078.06651  31.6%  39.9 2882s
 10861  7521 3870.12728  422  130 4500.00000 3078.06651  31.6%  40.1 2898s
 11006  7667 3885.61095  467  127 4500.00000 3078.06651  31.6%  40.2 2914s
 11154  7819 3938.47657  511  128 4500.00000 3078.06651  31.6%  40.4 2929s
 11313  7971 3954.24297  557  126 4500.00000 3078.06651  31.6%  40.6 2946s
 11471  8137 4000.99010  605  116 4500.00000 3078.06651  31.6%  40.8 2962s
 11672  8330 4037.80429  657  114 4500.00000 3078.06651  31.6%  40.9 2978s
 11875  8530 4068.29795  703   99 4500.00000 3078.06651  31.6%  41.1 2995s
 12243  8882 4161.34912  765   81 4500.00000 3078.06651  31.6%  40.8 3014s
 12745  9356 4149.02254  844   69 4500.00000 3078.06651  31.6%  40.2 3033s
 13258  9842 4252.89285  888   61 4500.00000 3078.06651  31.6%  39.0 3072s
H13259  9159                    4400.0000000 3078.06651  30.0%  39.0 3072s
 13260  9147 4162.64964  889   63 4400.00000 3078.06651  30.0%  39.0 3089s
 13629  9393     cutoff 1015      4400.00000 3078.06651  30.0%  38.5 3104s
 13981  9564     cutoff 1185      4400.00000 3085.35660  29.9%  38.1 3288s
 13989  9565 3125.74611   15  280 4400.00000 3085.35660  29.9%  38.1 3299s
 14034  9610 3159.21790   24  267 4400.00000 3085.35660  29.9%  38.3 3327s
 14094  9671 3222.46379   35  251 4400.00000 3085.35660  29.9%  38.4 3339s
 14176  9749 3270.84697   47  238 4400.00000 3085.35660  29.9%  38.5 3351s
 14274  9849 3332.41378   93  227 4400.00000 3085.35660  29.9%  38.5 3364s
 14412  9990 3397.22140  132  206 4400.00000 3085.35660  29.9%  38.5 3377s
 14613 10191 3491.21234  190  189 4400.00000 3085.35660  29.9%  38.4 3391s
